VACCINE = Vaccine(1..3);
m = 24;
age = [BABY, SENIOR, YOUTH, ADULT, BABY, ADULT, ANCIENT, CHILD, SENIOR, YOUTH, YOUTH, YOUTH, ADULT, BABY, CHILD, ADULT, AGED, AGED, CHILD, ADULT, ANCIENT, YOUTH, BABY, SENIOR];
gender = [MALE, MALE, MALE, MALE, OTHER, FEMALE, MALE, FEMALE, OTHER, FEMALE, FEMALE, FEMALE, MALE, FEMALE, MALE, OTHER, OTHER, MALE, MALE, OTHER, MALE, OTHER, MALE, MALE];
health = [GOOD, COMPROMISED, POOR, GOOD, POOR, COMPROMISED, COMPROMISED, GOOD, COMPROMISED, COMPROMISED, COMPROMISED, POOR, GOOD, COMPROMISED, GOOD, COMPROMISED, GOOD, GOOD, POOR, COMPROMISED, COMPROMISED, COMPROMISED, POOR, GOOD];
exposure = [HIGH, HIGH, LOW, HIGH, LOW, LOW, HIGH, AVERAGE, LOW, HIGH, LOW, AVERAGE, HIGH, HIGH, HIGH, LOW, HIGH, EXTREME, AVERAGE, LOW, EXTREME, EXTREME, AVERAGE, AVERAGE];
size = [7, 12, 9, 9, 7, 10, 10, 8, 9, 9, 9, 10, 7, 10, 8, 10, 12, 9, 7, 10, 10, 12, 10, 11];
minsize = 7;
age_group_min = [0, 0, 1, 0, 1, 0, 0];
age_group_max = [24, 23, 15, 23, 19, 19, 10];
max_people_diff = 61;
max_share_vaccines = 3;
health_information = {5, 8, 24};
exposure_information = {6, 11, 12, 23};